nN = 5;
nR = 20;
nH = 2;

a = [[15, 12, 16, 15, 20, 18, 11, 14, 23, 14, 18, 13, 11, 15, 17, 18, 20, 11, 20, 24], [22, 14, 10, 15, 12, 21, 24, 16, 17, 22, 11, 15, 18, 15, 18, 23, 22, 23, 21, 13], [25, 11, 22, 10, 22, 17, 22, 12, 21, 21, 16, 14, 23, 21, 14, 17, 25, 18, 15, 15], [23, 13, 14, 25, 21, 18, 23, 19, 17, 18, 20, 20, 22, 24, 23, 13, 17, 22, 20, 21], [15, 25, 22, 14, 17, 21, 16, 21, 20, 12, 15, 18, 17, 21, 20, 20, 13, 14, 23, 14]];
c = [[[0, 0, 0, 0, 0, 0, 0, 0, 0, 0, 0, 0, 0, 0, 0, 0, 0, 0, 0, 0], [43, 34, 35, 38, 35, 37, 34, 50, 37, 33, 35, 47, 41, 47, 40, 50, 39, 34, 31, 50], [40, 41, 40, 38, 30, 46, 35, 41, 43, 39, 37, 36, 49, 32, 32, 35, 38, 31, 44, 35], [41, 38, 32, 45, 39, 40, 49, 32, 31, 41, 49, 33, 41, 33, 45, 30, 43, 50, 45, 38], [36, 32, 48, 41, 38, 38, 49, 43, 47, 42, 36, 46, 38, 40, 45, 37, 33, 38, 50, 43]], [[0, 0, 0, 0, 0, 0, 0, 0, 0, 0, 0, 0, 0, 0, 0, 0, 0, 0, 0, 0], [0, 0, 0, 0, 0, 0, 0, 0, 0, 0, 0, 0, 0, 0, 0, 0, 0, 0, 0, 0], [49, 37, 40, 33, 36, 30, 39, 33, 48, 36, 42, 40, 50, 43, 41, 30, 37, 39, 41, 47], [45, 34, 40, 30, 49, 44, 41, 36, 36, 37, 50, 45, 49, 42, 45, 48, 44, 45, 30, 31], [38, 34, 37, 41, 49, 32, 46, 46, 36, 50, 41, 36, 37, 35, 45, 45, 42, 36, 49, 36]], [[0, 0, 0, 0, 0, 0, 0, 0, 0, 0, 0, 0, 0, 0, 0, 0, 0, 0, 0, 0], [0, 0, 0, 0, 0, 0, 0, 0, 0, 0, 0, 0, 0, 0, 0, 0, 0, 0, 0, 0], [0, 0, 0, 0, 0, 0, 0, 0, 0, 0, 0, 0, 0, 0, 0, 0, 0, 0, 0, 0], [44, 41, 49, 47, 34, 31, 46, 49, 42, 35, 47, 30, 40, 41, 34, 35, 36, 44, 50, 35], [43, 35, 41, 36, 41, 43, 46, 33, 48, 32, 35, 37, 44, 48, 35, 47, 44, 30, 39, 48]], [[0, 0, 0, 0, 0, 0, 0, 0, 0, 0, 0, 0, 0, 0, 0, 0, 0, 0, 0, 0], [0, 0, 0, 0, 0, 0, 0, 0, 0, 0, 0, 0, 0, 0, 0, 0, 0, 0, 0, 0], [0, 0, 0, 0, 0, 0, 0, 0, 0, 0, 0, 0, 0, 0, 0, 0, 0, 0, 0, 0], [0, 0, 0, 0, 0, 0, 0, 0, 0, 0, 0, 0, 0, 0, 0, 0, 0, 0, 0, 0], [37, 49, 42, 43, 44, 49, 44, 49, 39, 45, 36, 43, 30, 50, 37, 32, 50, 38, 34, 41]], [[0, 0, 0, 0, 0, 0, 0, 0, 0, 0, 0, 0, 0, 0, 0, 0, 0, 0, 0, 0], [0, 0, 0, 0, 0, 0, 0, 0, 0, 0, 0, 0, 0, 0, 0, 0, 0, 0, 0, 0], [0, 0, 0, 0, 0, 0, 0, 0, 0, 0, 0, 0, 0, 0, 0, 0, 0, 0, 0, 0], [0, 0, 0, 0, 0, 0, 0, 0, 0, 0, 0, 0, 0, 0, 0, 0, 0, 0, 0, 0], [0, 0, 0, 0, 0, 0, 0, 0, 0, 0, 0, 0, 0, 0, 0, 0, 0, 0, 0, 0]]];

q = [[[11, 119], [11, 115], [5, 108], [25, 112], [10, 119], [17, 105], [16, 111], [20, 105], [5, 107], [20, 122], [14, 113], [10, 124], [15, 113], [6, 123], [11, 113], [14, 105], [13, 114], [8, 106], [15, 114], [11, 109]], [[17, 118], [17, 111], [12, 119], [23, 105], [16, 111], [25, 125], [13, 116], [16, 125], [19, 116], [16, 116], [24, 122], [17, 120], [24, 123], [6, 121], [6, 123], [16, 117], [25, 110], [21, 119], [5, 110], [18, 124]], [[13, 125], [13, 113], [20, 105], [17, 118], [8, 122], [7, 124], [16, 121], [9, 105], [23, 124], [18, 107], [21, 125], [24, 118], [11, 120], [15, 105], [12, 105], [24, 119], [19, 124], [23, 120], [13, 111], [12, 121]], [[6, 113], [10, 107], [18, 112], [16, 124], [12, 117], [25, 107], [17, 106], [7, 106], [10, 123], [6, 109], [20, 117], [20, 119], [9, 110], [20, 106], [11, 115], [21, 119], [6, 116], [9, 120], [20, 125], [23, 113]], [[7, 105], [14, 120], [18, 112], [24, 124], [7, 112], [24, 120], [18, 105], [19, 113], [18, 112], [23, 112], [15, 108], [16, 117], [14, 124], [9, 111], [16, 114], [25, 115], [15, 120], [20, 119], [23, 111], [17, 105]]];
Q = [[42, 362], [54, 377], [52, 374], [47, 366], [55, 365]];
